Route #1: 1 2 5 29 23 31 45 30 50 37 51 44 24 20 16 33 17 8 26 40 1
Route #2: 1 11 38 3 43 49 1
Route #3: 1 32 21 7 39 19 41 27 1
Route #4: 1 52 28 9 47 36 1
Route #5: 1 34 4 6 15 35 1
Route #6: 1 22 14 53 25 12 42 1
Route #7: 1 48 10 18 13 46 1
cost 1155.9406940744927
